letting n =  10
letting blocks =  [[1, 8], [2, 1], [2, 4], [2, 6], [2, 8], [3, 2], [3, 6], [3, 8], [3, 9], [4, 4], [4, 9], [5, 4], [5, 9], [6, 5], [7, 6], [7, 9], [8, 3], [8, 6], [9, 2], [9, 4], [9, 7], [10, 4]]
